p cnf 31 30
1 2 3 4 0
1 2 -3 5 0
1 -2 3 7 0
1 -2 -3 8 0
-1 2 3 6 0
9 10 11 1 2 3 12 0
9 10 11 1 2 -3 26 0
9 10 11 1 -2 3 25 0
9 10 11 1 -2 -3 24 0
9 10 11 -1 2 3 13 0
9 10 -11 1 2 3 14 0
9 10 -11 1 2 -3 23 0
9 10 -11 1 -2 3 27 0
9 10 -11 1 -2 -3 15 0
9 10 -11 -1 2 3 28 0
9 -10 11 1 2 3 12 0
9 -10 11 1 2 -3 16 0
9 -10 11 1 -2 3 27 0
9 -10 11 1 -2 -3 29 0
9 -10 11 -1 2 3 20 0
9 -10 -11 1 2 3 13 0
9 -10 -11 1 2 -3 31 0
9 -10 -11 1 -2 3 21 0
9 -10 -11 1 -2 -3 17 0
9 -10 -11 -1 2 3 18 0
-9 10 11 1 2 3 13 0
-9 10 11 1 2 -3 13 0
-9 10 11 1 -2 3 19 0
-9 10 11 1 -2 -3 22 0
-9 10 11 -1 2 3 30 0
